(set-info :status unsat)
(declare-const symbol_68 (_ BitVec 32))
(declare-const symbol_35 (_ BitVec 32))
(declare-const symbol_134 (_ BitVec 32))
(declare-const symbol_125 (_ BitVec 32))
(declare-const symbol_112 (_ BitVec 32))
(declare-const symbol_110 (_ BitVec 32))
(declare-const symbol_91 (_ BitVec 32))
(declare-const symbol_58 (_ BitVec 32))
(declare-const symbol_33 (_ BitVec 32))
(declare-const symbol_131 (_ BitVec 32))
(declare-const symbol_63 (_ BitVec 32))
(declare-const symbol_116 (_ BitVec 32))
(declare-const symbol_85 (_ BitVec 32))
(declare-const symbol_77 (_ BitVec 32))
(declare-const symbol_60 (_ BitVec 32))
(declare-const symbol_10 (_ BitVec 32))
(declare-const symbol_26 (_ BitVec 32))
(declare-const symbol_28 (_ BitVec 32))
(declare-const symbol_29 (_ BitVec 32))
(declare-const symbol_0 (_ BitVec 32))
(declare-const symbol_44 (_ BitVec 32))
(declare-const symbol_103 (_ BitVec 32))
(declare-const symbol_65 (_ BitVec 32))
(declare-const symbol_47 (_ BitVec 32))
(declare-const symbol_108 (_ BitVec 32))
(declare-const symbol_52 (_ BitVec 32))
(declare-const symbol_16 (_ BitVec 32))
(declare-const symbol_133 (_ BitVec 32))
(declare-const symbol_3 (_ BitVec 32))
(declare-const symbol_123 (_ BitVec 32))
(declare-const symbol_95 (_ BitVec 32))
(declare-const symbol_14 (_ BitVec 32))
(declare-const symbol_117 (_ BitVec 32))
(declare-const symbol_24 (_ BitVec 32))
(declare-const symbol_105 (_ BitVec 32))
(declare-const symbol_6 (_ BitVec 32))
(declare-const symbol_1 (_ BitVec 32))
(declare-const symbol_127 (_ BitVec 32))
(declare-const symbol_74 (_ BitVec 32))
(declare-const symbol_22 (_ BitVec 32))
(declare-const symbol_72 (_ BitVec 32))
(declare-const symbol_41 (_ BitVec 32))
(declare-const symbol_83 (_ BitVec 32))
(declare-const symbol_79 (_ BitVec 32))
(declare-const symbol_62 (_ BitVec 32))
(declare-const symbol_97 (_ BitVec 32))
(declare-const symbol_50 (_ BitVec 32))
(declare-const symbol_37 (_ BitVec 32))
(declare-const symbol_21 (_ BitVec 32))
(declare-const symbol_19 (_ BitVec 32))
(declare-const symbol_43 (_ BitVec 32))
(declare-const symbol_99 (_ BitVec 32))
(declare-const symbol_93 (_ BitVec 32))
(declare-const symbol_107 (_ BitVec 32))
(declare-const symbol_101 (_ BitVec 32))
(declare-const symbol_89 (_ BitVec 32))
(declare-const symbol_31 (_ BitVec 32))
(declare-const symbol_121 (_ BitVec 32))
(declare-const symbol_53 (_ BitVec 32))
(declare-const symbol_56 (_ BitVec 32))
(declare-const symbol_39 (_ BitVec 32))
(declare-const symbol_12 (_ BitVec 32))
(declare-const symbol_8 (_ BitVec 32))
(declare-const symbol_129 (_ BitVec 32))
(declare-const symbol_119 (_ BitVec 32))
(declare-const symbol_114 (_ BitVec 32))
(declare-const symbol_81 (_ BitVec 32))
(declare-const symbol_70 (_ BitVec 32))
(declare-const symbol_87 (_ BitVec 32))
(declare-const symbol_48 (_ BitVec 32))
(assert (= symbol_134 (_ bv14 32)))
(assert (not (not (= symbol_134 (_ bv15 32)))))
(assert (not (not (= symbol_133 (_ bv15 32)))))
(assert (not (not (= symbol_131 (_ bv15 32)))))
(assert (not (not (= symbol_129 (_ bv15 32)))))
(assert (not (not (= symbol_127 (_ bv15 32)))))
(assert (not (not (= symbol_125 (_ bv15 32)))))
(assert (not (not (= symbol_123 (_ bv15 32)))))
(assert (not (not (= symbol_121 (_ bv15 32)))))
(assert (not (not (= symbol_119 (_ bv15 32)))))
(assert (not (not (= symbol_117 (_ bv15 32)))))
(assert (not (not (= symbol_116 (_ bv15 32)))))
(assert (not (not (= symbol_114 (_ bv15 32)))))
(assert (not (not (= symbol_112 (_ bv15 32)))))
(assert (not (not (= symbol_110 (_ bv15 32)))))
(assert (not (not (= symbol_108 (_ bv15 32)))))
(assert (not (not (= symbol_107 (_ bv15 32)))))
(assert (not (not (= symbol_105 (_ bv15 32)))))
(assert (not (not (= symbol_103 (_ bv15 32)))))
(assert (not (not (= symbol_101 (_ bv15 32)))))
(assert (not (not (= symbol_99 (_ bv15 32)))))
(assert (not (not (= symbol_97 (_ bv15 32)))))
(assert (not (not (= symbol_95 (_ bv15 32)))))
(assert (not (not (= symbol_93 (_ bv15 32)))))
(assert (not (not (= symbol_91 (_ bv15 32)))))
(assert (not (not (= symbol_89 (_ bv15 32)))))
(assert (not (not (= symbol_87 (_ bv15 32)))))
(assert (not (not (= symbol_85 (_ bv15 32)))))
(assert (not (not (= symbol_83 (_ bv15 32)))))
(assert (not (not (= symbol_81 (_ bv15 32)))))
(assert (not (not (= symbol_79 (_ bv15 32)))))
(assert (not (not (= symbol_77 (_ bv15 32)))))
(assert (not (not (= symbol_74 (_ bv15 32)))))
(assert (not (not (= symbol_72 (_ bv15 32)))))
(assert (not (not (= symbol_70 (_ bv15 32)))))
(assert (not (not (= symbol_68 (_ bv15 32)))))
(assert (not (not (= symbol_65 (_ bv15 32)))))
(assert (not (not (= symbol_63 (_ bv15 32)))))
(assert (not (not (= symbol_62 (_ bv15 32)))))
(assert (not (not (= symbol_60 (_ bv15 32)))))
(assert (not (not (= symbol_58 (_ bv15 32)))))
(assert (not (not (= symbol_56 (_ bv15 32)))))
(assert (not (not (= symbol_53 (_ bv15 32)))))
(assert (not (not (= symbol_52 (_ bv15 32)))))
(assert (not (not (= symbol_50 (_ bv15 32)))))
(assert (not (not (= symbol_48 (_ bv15 32)))))
(assert (not (not (= symbol_47 (_ bv15 32)))))
(assert (not (not (= symbol_44 (_ bv15 32)))))
(assert (not (not (= symbol_43 (_ bv15 32)))))
(assert (not (not (= symbol_41 (_ bv15 32)))))
(assert (not (not (= symbol_39 (_ bv15 32)))))
(assert (not (not (= symbol_37 (_ bv15 32)))))
(assert (not (not (= symbol_35 (_ bv15 32)))))
(assert (not (not (= symbol_33 (_ bv15 32)))))
(assert (not (not (= symbol_31 (_ bv15 32)))))
(assert (not (not (= symbol_29 (_ bv15 32)))))
(assert (not (not (= symbol_28 (_ bv15 32)))))
(assert (not (not (= symbol_26 (_ bv15 32)))))
(assert (not (not (= symbol_24 (_ bv15 32)))))
(assert (not (not (= symbol_22 (_ bv15 32)))))
(assert (not (not (= symbol_21 (_ bv15 32)))))
(assert (not (not (= symbol_19 (_ bv15 32)))))
(assert (not (not (= symbol_16 (_ bv15 32)))))
(assert (not (not (= symbol_14 (_ bv15 32)))))
(assert (not (not (= symbol_12 (_ bv15 32)))))
(assert (not (not (= symbol_10 (_ bv15 32)))))
(assert (not (not (= symbol_8 (_ bv15 32)))))
(assert (not (not (= symbol_6 (_ bv15 32)))))
(assert (not (not (= symbol_3 (_ bv15 32)))))
(assert (not (not (= symbol_1 (_ bv15 32)))))
(assert (not (not (= symbol_0 (_ bv15 32)))))
(check-sat)